sat
(:max-memory         17.95
 :memory             17.95
 :nlsat-conflicts    1
 :nlsat-propagations 14
 :nlsat-stages       5
 :num-allocs         18409
 :rlimit-count       1449
 :time               0.00
 :total-time         0.01)
